
List of user-set options:

                                    Name   Value                used
                           compl_inf_tol = 1                     yes
                         constr_viol_tol = 1                     yes
                            dual_inf_tol = 1000                  yes
                           linear_solver = ma97                  yes
                              ma86_small = 1e-30                  no
                                  ma86_u = 0.0001                 no
                              ma97_order = best                  yes
                              ma97_small = 1e-30                 yes
                            ma97_switch1 = at_start              yes
                            ma97_switch2 = od_hd_reuse           yes
                                  ma97_u = 1e-06                 yes
                               ma97_umax = 0.5                   yes
                                max_iter = 1000                  yes
                    max_refinement_steps = 20                    yes
                    min_refinement_steps = 5                     yes
                                 mu_init = 1e-06                 yes
           mu_superlinear_decrease_power = 1.25                  yes
                   nlp_scaling_min_value = 1e-08                 yes
                        option_file_name = Preset_Case:_864_NCP.opt  yes
                             output_file = ./tmp/Preset_Case:_864_NCP.output  yes
                      print_user_options = yes                   yes
        required_infeasibility_reduction = 1                      no
                                     tol = 1e-08                 yes
                   warm_start_bound_frac = 1e-20                 yes
                   warm_start_bound_push = 1e-20                 yes
                   warm_start_init_point = yes                   yes
              warm_start_mult_bound_push = 1e-20                 yes
                warm_start_mult_init_max = 1e+40                 yes
             warm_start_slack_bound_frac = 1e-20                 yes
             warm_start_slack_bound_push = 1e-20                 yes

******************************************************************************
This program contains Ipopt, a library for large-scale nonlinear optimization.
 Ipopt is released as open source code under the Eclipse Public License (EPL).
         For more information visit http://projects.coin-or.org/Ipopt
******************************************************************************

This is Ipopt version 3.12.10, running with linear solver ma97.

Number of nonzeros in equality constraint Jacobian...:   117167
Number of nonzeros in inequality constraint Jacobian.:      213
Number of nonzeros in Lagrangian Hessian.............:    47513

Total number of variables............................:    29977
                     variables with only lower bounds:    11312
                variables with lower and upper bounds:    15135
                     variables with only upper bounds:        0
Total number of equality constraints.................:    29864
Total number of inequality constraints...............:       25
        inequality constraints with only lower bounds:        4
   inequality constraints with lower and upper bounds:        0
        inequality constraints with only upper bounds:       21

iter    objective    inf_pr   inf_du lg(mu)  ||d||  lg(rg) alpha_du alpha_pr  ls
   0 -1.6006631e-01 4.35e-01 2.00e+00  -6.0 0.00e+00    -  0.00e+00 0.00e+00   0
In iteration 0, 10 Slacks too small, adjusting variable bounds
   1 -1.6006631e-01 4.35e-01 2.14e+02  -6.0 1.08e+10    -  2.13e-14 4.87e-19h  1
   2 -1.5985513e-01 4.27e-01 5.75e+02  -6.0 4.67e+02    -  9.48e-07 1.71e-02h  3
   3 -1.5985509e-01 4.27e-01 5.30e+02  -6.0 4.27e-01    -  9.75e-01 7.30e-04h  1
   4 -1.5979378e-01 4.25e-01 5.28e+02  -6.0 3.31e+01  -2.0 3.99e-03 3.61e-03h  1
   5 -1.5972104e-01 4.25e-01 5.27e+02  -6.0 4.07e+01  -2.5 5.34e-04 1.53e-03h  1
   6 -1.5814867e-01 4.10e-01 5.13e+02  -6.0 3.21e+01  -3.0 4.97e-03 3.35e-02h  1
   7 -1.5682967e-01 3.98e-01 4.81e+03  -6.0 5.32e+01  -3.4 3.50e-02 2.92e-02h  1
   8 -1.5683390e-01 3.97e-01 7.98e+03  -6.0 6.74e+02  -3.9 2.31e-02 2.39e-03h  5
   9 -1.5508514e-01 3.81e-01 5.86e+04  -6.0 5.31e+01  -3.5 1.05e-01 4.01e-02h  1
iter    objective    inf_pr   inf_du lg(mu)  ||d||  lg(rg) alpha_du alpha_pr  ls
  10 -1.5502505e-01 3.81e-01 5.91e+04  -6.0 4.66e+02  -4.0 5.02e-03 1.07e-03h  7
  11 -1.5342396e-01 3.69e-01 3.94e+04  -6.0 5.15e+01  -3.5 5.40e-03 3.17e-02h  4
  12 -1.5229826e-01 3.61e-01 6.34e+04  -6.0 8.51e+01  -4.0 1.19e-01 2.08e-02h  3
  13 -1.5147067e-01 3.56e-01 6.02e+04  -6.0 4.94e+01  -3.6 1.17e-02 1.54e-02h  5
  14 -1.4979875e-01 3.45e-01 9.51e+04  -6.0 4.81e+01  -3.2 5.25e-02 2.95e-02h  3
  15 -1.4897268e-01 3.40e-01 9.45e+04  -6.0 4.70e+01  -3.6 1.67e-02 1.52e-02h  5
  16 -1.4759045e-01 3.31e-01 2.35e+05  -6.0 4.64e+01  -3.2 1.23e-01 2.53e-02h  4
  17 -1.4683819e-01 3.27e-01 2.32e+05  -6.0 1.02e+02  -3.7 1.50e-02 1.48e-02h  5
  18 -1.4523196e-01 3.17e-01 4.22e+05  -6.0 4.50e+01  -3.3 1.91e-01 3.04e-02h  4
  19 -1.4447837e-01 3.12e-01 4.19e+05  -6.0 7.73e+01  -3.7 3.85e-02 1.44e-02h  5
iter    objective    inf_pr   inf_du lg(mu)  ||d||  lg(rg) alpha_du alpha_pr  ls
  20 -1.3244645e-01 5.83e-01 3.14e+05  -6.0 4.33e+01  -3.3 2.32e-01 2.39e-01w  1
  21 -1.3244621e-01 5.83e-01 4.08e+05  -6.0 5.20e+01  -3.8 1.30e-01 7.99e-06w  1
  22 -1.2679545e-01 5.06e-01 3.18e+05  -6.0 7.75e+01  -4.3 1.77e-01 2.55e-01w  1
  23 -1.4297438e-01 3.03e-01 6.03e+05  -6.0 5.20e+01  -4.7 2.32e-01 2.98e-02h  3
  24 -1.4152137e-01 2.94e-01 7.34e+05  -6.0 4.20e+01  -3.4 2.90e-01 2.96e-02h  4
  25 -1.4093847e-01 2.90e-01 7.08e+05  -6.0 4.90e+01  -3.9 8.64e-02 1.18e-02h  5
  26 -1.3970335e-01 2.83e-01 8.41e+05  -6.0 4.05e+01  -3.5 3.81e-01 2.66e-02h  4
  27 -1.3822902e-01 2.73e-01 7.52e+05  -6.0 4.22e+01  -3.9 2.17e-01 3.27e-02h  4
  28 -1.3690314e-01 2.65e-01 9.07e+05  -6.0 3.81e+01  -3.5 4.87e-01 3.21e-02h  4
  29 -1.3329689e-01 2.43e-01 8.05e+05  -6.0 6.27e+01  -4.0 1.60e-01 8.14e-02h  3
iter    objective    inf_pr   inf_du lg(mu)  ||d||  lg(rg) alpha_du alpha_pr  ls
  30 -1.3117891e-01 2.29e-01 8.30e+05  -6.0 3.64e+01  -3.6 2.40e-01 5.74e-02h  3
  31 -1.2999581e-01 2.17e-01 7.26e+05  -6.0 5.82e+01  -4.0 2.31e-01 5.28e-02h  4
  32 -1.3033155e-01 2.17e-01 7.00e+05  -6.0 2.54e+03  -4.5 3.33e-03 4.55e-04h  3
  33 -1.2570573e-01 3.04e-01 5.68e+05  -6.0 5.77e+01  -4.1 1.86e-01 1.91e-01w  1
  34 -1.1941035e-01 3.61e-01 5.45e+05  -6.0 2.86e+01  -3.7 6.21e-01 2.66e-01w  1
  35 -1.1880458e-01 4.54e-01 4.42e+05  -6.0 7.41e+01  -4.1 2.68e-01 6.95e-02w  1
  36 -1.2917510e-01 2.06e-01 6.28e+05  -6.0 3.43e+01  -3.7 1.86e-01 4.78e-02h  2
  37 -1.2893157e-01 2.02e-01 5.96e+05  -6.0 8.32e+01  -4.2 7.28e-02 2.18e-02h  3
  38 -1.2686286e-01 1.88e-01 6.73e+05  -6.0 3.31e+01  -3.8 6.56e-01 6.91e-02h  3
  39 -1.2680323e-01 1.85e-01 5.79e+05  -6.0 1.04e+02  -4.2 1.67e-01 1.37e-02h  3
iter    objective    inf_pr   inf_du lg(mu)  ||d||  lg(rg) alpha_du alpha_pr  ls
  40 -1.2391983e-01 1.64e-01 5.33e+05  -6.0 3.62e+01  -3.8 2.64e-01 1.16e-01h  2
  41 -1.2405940e-01 1.63e-01 4.90e+05  -6.0 1.75e+02  -4.3 6.30e-02 5.04e-03h  3
  42 -1.2174451e-01 1.46e-01 5.24e+05  -6.0 3.59e+01  -3.9 7.89e-01 1.06e-01h  1
  43 -1.1970628e-01 1.42e-01 4.15e+05  -6.0 2.42e+01  -3.4 7.03e-02 1.19e-01h  1
  44 -1.1970411e-01 1.42e-01 4.78e+05  -6.0 4.25e+01  -3.9 4.94e-01 2.97e-04h  1
  45 -1.2047386e-01 1.54e-01 4.82e+05  -6.0 1.66e+03  -4.4 1.30e-03 1.85e-03h  2
  46 -1.1935945e-01 2.55e-01 3.87e+05  -6.0 4.36e+01  -4.0 6.06e-01 1.84e-01H  1
  47 -1.1839534e-01 2.42e-01 5.43e+05  -6.0 2.22e+01  -3.6 2.95e-01 6.50e-02h  1
  48 -1.1667521e-01 2.39e-01 4.61e+05  -6.0 3.33e+01  -4.0 2.92e-01 1.20e-01h  2
  49 -1.1499025e-01 2.16e-01 3.35e+05  -6.0 2.06e+01  -3.6 9.40e-02 1.68e-01h  2
iter    objective    inf_pr   inf_du lg(mu)  ||d||  lg(rg) alpha_du alpha_pr  ls
  50 -1.0377608e-01 1.81e-01 8.53e+05  -6.0 2.34e+01  -4.1 1.14e-01 9.56e-01H  1
  51 -1.0576826e-01 7.88e-02 1.66e+06  -6.0 4.14e+00  -4.6 1.55e-01 6.39e-01h  1
  52 -1.0840415e-01 1.25e-01 1.93e+06  -6.0 1.65e+01  -5.0 1.95e-01 2.59e-01f  1
  53r-1.0840415e-01 1.25e-01 1.00e+03  -1.1 0.00e+00  -5.5 0.00e+00 2.85e-07R  2
  54r-1.0824992e-01 1.21e-01 9.99e+02  -1.1 7.16e+03    -  1.57e-05 2.83e-05f  1
  55 -1.0829374e-01 9.38e-02 1.94e+07  -6.0 9.04e-01    -  4.22e-01 2.26e-01h  1
  56 -1.0840394e-01 4.42e-02 7.77e+07  -6.0 8.36e-01    -  1.58e-01 5.29e-01h  1
  57 -1.0859812e-01 1.22e-02 2.31e+07  -6.0 3.36e-01    -  6.35e-01 7.25e-01h  1
  58 -1.0900763e-01 2.87e-03 4.22e+06  -6.0 8.30e-01    -  2.81e-01 8.17e-01h  1
  59 -1.0974569e-01 2.26e-03 4.89e+01  -6.0 1.27e+00    -  5.29e-01 1.00e+00f  1
iter    objective    inf_pr   inf_du lg(mu)  ||d||  lg(rg) alpha_du alpha_pr  ls
  60 -1.1127464e-01 9.34e-03 1.53e+01  -6.0 2.68e+00    -  6.97e-01 1.00e+00h  1
  61 -1.1282616e-01 1.29e-02 9.78e+00  -6.0 7.70e+00    -  3.62e-01 3.85e-01h  1
  62 -1.1698612e-01 1.90e-02 3.32e+00  -6.0 1.27e+01    -  7.41e-01 1.00e+00h  1
  63 -1.2113956e-01 3.01e-02 5.06e+00  -6.0 6.72e+01    -  2.64e-01 2.26e-01h  1
  64 -1.2626974e-01 5.62e-02 1.52e+04  -6.0 5.47e+01    -  3.27e-01 5.86e-01f  1
  65 -1.2917366e-01 5.40e-02 1.39e+04  -6.0 2.56e+02    -  5.99e-02 5.73e-02h  1
  66 -1.3200387e-01 7.65e-02 1.69e+04  -6.0 7.89e+01    -  4.29e-04 3.95e-01h  1
  67 -1.3479754e-01 1.00e-01 1.66e+04  -6.0 5.63e+01    -  3.34e-01 4.81e-01f  1
  68 -1.4078105e-01 1.25e-01 1.82e+04  -6.0 7.52e+01    -  6.82e-03 8.27e-01H  1
  69 -1.4235645e-01 1.11e-01 1.56e+04  -6.0 6.67e+01    -  1.00e-01 2.71e-01h  1
iter    objective    inf_pr   inf_du lg(mu)  ||d||  lg(rg) alpha_du alpha_pr  ls
  70 -1.4260890e-01 1.05e-01 8.04e+03  -6.0 9.02e+01    -  5.99e-01 5.08e-02h  1
  71 -1.4547035e-01 1.47e-01 6.11e+03  -6.0 2.16e+02    -  2.00e-01 3.17e-01H  1
  72 -1.4686705e-01 1.30e-01 3.51e+03  -6.0 2.06e+02    -  6.25e-01 1.76e-01h  1
  73 -1.4790572e-01 1.23e-01 2.98e+03  -6.0 4.84e+02    -  3.18e-01 6.90e-02h  4
  74 -1.4872133e-01 1.98e-01 7.25e+02  -6.0 1.47e+01  -6.0 8.75e-01 6.09e-01h  1
  75 -1.5083702e-01 1.75e-01 2.27e+02  -6.0 4.31e+01  -6.5 3.51e-03 1.00e+00H  1
  76 -1.5116390e-01 2.10e-01 2.26e+02  -6.0 1.02e+03  -6.9 3.80e-03 3.00e-03h  1
  77 -1.5272955e-01 1.80e-01 1.42e+03  -6.0 2.63e+02  -7.4 6.16e-01 1.72e-01h  2
  78 -1.5428379e-01 1.55e-01 2.02e+03  -6.0 1.21e+02  -7.0 9.76e-01 3.45e-01h  1
  79 -1.5535236e-01 1.84e-01 3.93e+03  -6.0 2.51e+02  -7.5 7.51e-01 1.21e-01h  3
iter    objective    inf_pr   inf_du lg(mu)  ||d||  lg(rg) alpha_du alpha_pr  ls
  80 -1.5802358e-01 2.29e-01 8.84e+02  -6.0 1.17e+02  -7.0 5.27e-01 6.61e-01H  1
  81 -1.6261042e-01 2.27e+00 1.14e+03  -6.0 2.44e+02  -7.5 4.92e-01 5.59e-01h  1
  82 -1.6397770e-01 1.44e+00 1.83e+04  -6.0 3.20e+02  -7.1 1.77e-03 2.50e-01h  1
  83 -1.6525965e-01 6.21e-01 4.28e+04  -6.0 4.83e+01  -6.7 3.36e-01 5.73e-01h  1
  84 -1.6570178e-01 5.56e-01 2.69e+06  -6.0 1.83e+02  -7.1 2.37e-03 9.87e-02h  1
  85 -1.6679190e-01 7.35e-01 2.36e+06  -6.0 2.85e+02  -7.6 2.31e-01 1.21e-01h  1
  86 -1.6825995e-01 7.84e-01 2.03e+06  -6.0 5.05e+02  -8.1 4.51e-01 1.40e-01h  1
  87 -1.7066503e-01 8.59e-01 9.78e+05  -6.0 2.14e+02  -7.7 8.68e-01 5.18e-01h  1
  88 -1.7583600e-01 1.51e+00 5.77e+05  -6.0 5.64e+02  -8.2 7.29e-01 4.08e-01h  1
  89 -1.7673554e-01 1.12e+00 3.96e+05  -6.0 3.76e+02  -7.7 2.21e-01 3.10e-01h  1
iter    objective    inf_pr   inf_du lg(mu)  ||d||  lg(rg) alpha_du alpha_pr  ls
  90 -1.7703301e-01 7.96e-01 2.80e+05  -6.0 1.82e+02  -6.4 1.00e+00 2.93e-01h  1
  91 -1.7892466e-01 7.72e-01 2.80e+03  -6.0 2.07e+02  -6.9 7.79e-01 9.89e-01h  1
  92 -1.8348237e-01 7.03e+00 1.14e+02  -6.0 6.21e+02  -7.4 1.23e-01 1.00e+00h  1
  93 -1.8453286e-01 5.44e+00 3.20e+02  -6.0 2.35e+02  -7.8 1.00e+00 2.29e-01h  1
  94 -1.9255483e-01 5.22e+00 6.84e+01  -6.0 7.31e+02  -8.3 2.70e-01 5.97e-01h  1
  95 -1.9401085e-01 3.85e+00 9.81e+01  -6.0 2.40e+02  -7.9 1.35e-01 3.13e-01h  1
  96 -1.9639914e-01 3.87e+00 1.48e+02  -6.0 6.04e+02  -8.4 4.19e-01 1.89e-01h  1
  97 -2.0053860e-01 4.49e+00 2.01e+02  -6.0 2.49e+02  -7.9 1.00e+00 8.67e-01h  1
  98 -2.0164083e-01 4.59e+00 1.72e+03  -6.0 6.45e+02  -8.4 7.36e-01 9.52e-02h  1
  99 -2.0331833e-01 3.63e+00 3.74e+03  -6.0 2.22e+02  -8.0 1.00e+00 3.80e-01h  1
iter    objective    inf_pr   inf_du lg(mu)  ||d||  lg(rg) alpha_du alpha_pr  ls
 100 -2.0603142e-01 2.25e+00 1.19e+03  -6.0 5.17e+02  -8.5 8.48e-02 4.22e-01h  1
 101 -2.0707361e-01 1.56e+00 2.79e+03  -6.0 2.01e+02  -8.0 4.64e-01 3.57e-01h  1
 102 -2.1295532e-01 3.97e+00 4.18e+04  -6.0 6.06e+02  -8.5 1.65e-01 8.40e-01h  1
 103 -2.1470467e-01 3.25e+00 7.29e+06  -6.0 3.89e+02  -8.1 2.35e-03 4.92e-01h  1
 104 -2.1449536e-01 3.17e+00 6.76e+06  -6.0 8.59e+02  -8.6 3.16e-04 7.23e-02h  3
 105 -2.1525865e-01 3.62e+00 5.45e+06  -6.0 1.98e+02  -7.2 6.07e-01 1.94e-01h  1
 106 -2.1569053e-01 4.20e-01 5.76e+05  -6.0 6.64e+01  -7.7 8.48e-01 8.94e-01h  1
 107 -2.1741344e-01 7.14e-01 7.44e+04  -6.0 1.82e+02  -8.2 1.00e+00 8.67e-01h  1
 108 -2.1832073e-01 8.25e-01 6.80e+04  -6.0 1.27e+03  -8.7 7.20e-02 8.21e-02h  1
 109 -2.1970094e-01 1.30e+00 2.10e+02  -6.0 3.00e+02  -8.2 1.00e+00 1.00e+00h  1
iter    objective    inf_pr   inf_du lg(mu)  ||d||  lg(rg) alpha_du alpha_pr  ls
 110 -2.2357779e-01 1.65e+01 1.18e+02  -6.0 1.81e+03  -8.7 1.83e-01 3.89e-01h  1
 111 -2.2411116e-01 1.54e+01 1.08e+02  -6.0 3.48e+02  -8.3 9.62e-01 1.43e-01h  1
 112 -2.2412576e-01 1.53e+01 1.07e+02  -6.0 6.80e+02  -8.8 1.71e-01 3.66e-03h  1
 113 -2.2617920e-01 5.46e+00 3.08e+01  -6.0 3.88e+02  -8.3 5.89e-01 1.00e+00f  1
 114 -2.2770037e-01 3.25e+00 2.10e+01  -6.0 6.47e+02  -8.8 3.82e-01 4.15e-01h  1
 115 -2.3203657e-01 1.52e+01 3.00e+02  -6.0 1.29e+03  -9.3 6.88e-02 6.30e-01h  1
 116 -2.3176786e-01 1.14e+01 4.48e+02  -6.0 9.00e+02  -7.1 1.37e-02 2.71e-01h  1
 117 -2.3248340e-01 7.98e+00 4.32e+02  -6.0 6.97e+01  -6.6 9.43e-02 2.97e-01h  1
 118 -2.3252866e-01 7.40e+00 4.02e+02  -6.0 3.42e+01  -7.1 6.62e-01 7.26e-02h  1
 119 -2.3278419e-01 4.70e+00 2.54e+02  -6.0 1.08e+02  -7.6 8.14e-01 3.66e-01h  1
iter    objective    inf_pr   inf_du lg(mu)  ||d||  lg(rg) alpha_du alpha_pr  ls
 120 -2.3291564e-01 1.20e-01 6.87e+00  -6.0 2.79e+01  -7.2 1.00e+00 1.00e+00h  1
 121 -2.3329507e-01 1.17e-01 4.57e+00  -6.0 5.16e+01  -7.6 1.00e+00 1.00e+00h  1
 122 -2.3355940e-01 1.16e-01 4.02e+00  -6.0 1.13e+02  -8.1 2.86e-01 3.76e-01h  1
 123 -2.3517973e-01 2.15e+00 3.37e+01  -6.0 5.29e+02  -8.6 4.36e-01 7.06e-01f  1
 124 -2.3561111e-01 1.56e+00 8.08e+02  -6.0 2.28e+02  -8.2 7.35e-02 3.13e-01h  1
 125 -2.3608102e-01 1.63e+00 5.92e+02  -6.0 2.78e+03  -8.6 5.41e-02 3.05e-02h  1
 126 -2.3858525e-01 6.42e+00 3.95e+02  -6.0 3.57e+02  -8.2 1.92e-01 1.00e+00h  1
 127 -2.3874837e-01 5.28e+00 1.34e+03  -6.0 1.93e+01  -6.9 6.80e-02 1.83e-01h  1
 128 -2.3980187e-01 2.81e+00 6.59e+01  -6.0 6.33e+01  -7.4 6.58e-01 1.00e+00h  1
 129 -2.4155983e-01 6.66e+00 5.07e+01  -6.0 2.31e+02  -7.8 1.00e+00 1.00e+00h  1
iter    objective    inf_pr   inf_du lg(mu)  ||d||  lg(rg) alpha_du alpha_pr  ls
 130 -2.4173126e-01 5.43e+00 2.92e+01  -6.0 9.02e+01  -7.4 6.52e-01 2.30e-01h  1
 131 -2.4343748e-01 4.70e+00 1.01e+02  -6.0 2.24e+02  -7.9 8.56e-01 9.64e-01h  1
 132 -2.4635053e-01 2.39e+00 3.06e+01  -6.0 3.72e+02  -8.4 9.24e-03 1.00e+00h  1
 133 -2.4644505e-01 1.91e+00 4.45e+01  -6.0 1.13e+02  -7.9 1.00e+00 2.05e-01h  1
 134 -2.4668144e-01 1.60e+00 1.93e+01  -6.0 2.60e+02  -8.4 7.48e-01 1.74e-01h  1
 135 -2.4715750e-01 6.55e-01 1.84e+01  -6.0 1.10e+02  -8.0 1.00e+00 1.00e+00h  1
 136 -2.4747571e-01 5.25e-01 1.50e+01  -6.0 2.72e+02  -8.5 7.09e-01 2.03e-01h  1
 137 -2.4806995e-01 6.92e-01 7.33e-01  -6.0 1.03e+02  -8.1 9.19e-01 1.00e+00h  1
 138 -2.4835632e-01 4.83e-01 6.47e+00  -6.0 2.70e+02  -8.5 3.28e-01 1.76e-01h  1
 139 -2.4887619e-01 1.87e-01 7.50e-01  -6.0 1.05e+02  -8.1 1.00e+00 1.00e+00h  1
iter    objective    inf_pr   inf_du lg(mu)  ||d||  lg(rg) alpha_du alpha_pr  ls
 140 -2.5010294e-01 1.35e+00 2.34e+00  -6.0 2.87e+02  -8.6 1.00e+00 9.86e-01h  1
 141 -2.5042603e-01 1.76e-01 1.11e-01  -6.0 1.00e+02  -8.2 1.00e+00 1.00e+00h  1
 142 -2.5142935e-01 1.52e+00 6.10e-01  -6.0 2.97e+02  -8.6 1.00e+00 1.00e+00h  1
 143 -2.5154645e-01 1.06e+00 1.73e+00  -6.0 1.40e+02  -8.2 4.21e-01 3.16e-01h  1
 144 -2.5173860e-01 8.79e-01 1.04e+00  -6.0 3.72e+02  -8.7 2.46e-01 2.36e-01h  1
 145 -2.5240596e-01 1.82e+00 1.03e+01  -6.0 9.47e+02  -9.2 4.62e-01 3.18e-01h  1
 146 -2.5353519e-01 2.32e+00 7.14e+00  -6.0 1.28e+03  -9.6 4.48e-01 3.42e-01h  1
 147 -2.5578687e-01 5.30e+00 1.19e+01  -6.0 3.54e+03 -10.1 2.00e-01 3.75e-01h  1
 148 -2.5680860e-01 1.06e+01 1.18e+01  -6.0 9.17e+03 -10.6 1.34e-01 1.62e-01h  1
 149 -2.5697498e-01 1.03e+01 1.94e+01  -6.0 4.25e+03 -11.1 1.26e-01 4.84e-02h  1
iter    objective    inf_pr   inf_du lg(mu)  ||d||  lg(rg) alpha_du alpha_pr  ls
 150 -2.5700237e-01 1.03e+01 2.88e+01  -6.0 1.07e+05 -11.5 2.56e-03 9.32e-04h  2
 151 -2.5701804e-01 1.03e+01 3.21e+01  -6.0 2.94e+04 -10.2 1.66e-03 6.70e-04h  2
 152 -2.5704509e-01 1.03e+01 3.35e+01  -6.0 1.19e+04 -10.7 7.81e-03 4.49e-03h  1
 153 -2.5734115e-01 1.33e+01 3.85e+01  -6.0 4.21e+03 -11.2 4.53e-02 1.19e-01h  1
 154 -2.5752938e-01 1.44e+01 3.92e+01  -6.0 7.87e+03 -11.6 1.05e-01 1.14e-01h  1
 155 -2.5752746e-01 1.43e+01 1.72e+02  -6.0 9.66e+00   0.2 8.97e-04 2.60e-03h  1
 156 -2.5752737e-01 1.43e+01 1.72e+02  -6.0 9.18e+00   0.6 1.56e-04 1.01e-04h  1
 157 -2.5752733e-01 1.43e+01 1.72e+02  -6.0 9.18e+00   1.0 2.69e-04 6.75e-05h  1
 158 -2.5752487e-01 1.43e+01 2.04e+02  -6.0 9.11e+00   0.6 2.20e-04 3.64e-03f  1
 159 -2.5752478e-01 1.43e+01 2.04e+02  -6.0 9.15e+00   1.0 5.99e-03 7.72e-05h  1
iter    objective    inf_pr   inf_du lg(mu)  ||d||  lg(rg) alpha_du alpha_pr  ls
 160 -2.5752017e-01 1.42e+01 3.31e+02  -6.0 9.13e+00   0.5 3.19e-03 3.47e-03h  1
 161 -2.5749754e-01 1.40e+01 1.49e+03  -6.0 9.13e+00   0.0 9.81e-03 1.84e-02h  1
 162 -2.5748695e-01 1.38e+01 1.56e+03  -6.0 8.99e+00  -0.4 3.83e-02 9.62e-03h  1
 163 -2.5734948e-01 1.21e+01 3.42e+03  -6.0 8.91e+00  -0.9 6.63e-02 1.24e-01h  1
 164 -2.5731582e-01 1.17e+01 3.16e+03  -6.0 7.62e+00  -1.4 9.76e-02 3.37e-02h  2
 165 -2.5730888e-01 1.16e+01 3.11e+03  -6.0 6.49e+00  -1.9 2.79e-01 8.89e-03h  4
 166 -2.5730434e-01 1.15e+01 3.10e+03  -6.0 7.15e+00  -1.4 2.40e-01 4.91e-03h  6
 167 -2.5730366e-01 1.15e+01 3.09e+03  -6.0 6.12e+00  -1.9 3.04e-01 9.37e-04h  7
 168 -2.5729883e-01 1.15e+01 3.08e+03  -6.0 6.98e+00  -1.5 1.16e-01 2.48e-03h  4
 169 -2.5725513e-01 1.07e+01 2.08e+03  -6.0 5.66e+00  -2.0 7.94e-02 6.71e-02h  1
iter    objective    inf_pr   inf_du lg(mu)  ||d||  lg(rg) alpha_du alpha_pr  ls
 170 -2.5703532e-01 7.85e+00 6.04e+03  -6.0 6.32e+00  -1.5 4.14e-01 2.69e-01h  1
 171 -2.5700824e-01 7.39e+00 5.89e+03  -6.0 3.68e+00  -2.0 7.20e-02 5.89e-02h  1
 172 -2.5698674e-01 7.13e+00 5.73e+03  -6.0 4.20e+00  -1.6 8.18e-01 3.50e-02h  1
 173 -2.5698576e-01 7.11e+00 5.72e+03  -6.0 3.18e+00  -2.1 8.56e-02 2.09e-03h  1
 174 -2.5692818e-01 6.41e+00 5.52e+03  -6.0 4.01e+00  -1.6 1.55e-01 9.91e-02h  1
 175 -2.5689700e-01 5.92e+00 5.31e+03  -6.0 2.74e+00  -2.1 3.05e-01 7.69e-02h  1
 176 -2.5682484e-01 5.02e+00 5.08e+03  -6.0 3.28e+00  -1.7 2.77e-01 1.52e-01h  1
 177 -2.5681302e-01 4.83e+00 4.92e+03  -6.0 2.21e+00  -2.2 9.23e-01 3.73e-02h  1
 178 -2.5669043e-01 3.28e+00 5.03e+03  -6.0 2.66e+00  -1.7 7.83e-02 3.21e-01h  1
 179 -2.5665974e-01 2.77e+00 4.45e+03  -6.0 1.59e+00  -2.2 1.00e+00 1.55e-01h  1
iter    objective    inf_pr   inf_du lg(mu)  ||d||  lg(rg) alpha_du alpha_pr  ls
 180 -2.5644948e-01 3.22e-02 5.19e+03  -6.0 1.52e+00  -1.8 3.58e-01 1.00e+00h  1
 181 -2.5649570e-01 1.13e-05 1.72e+01  -6.0 3.27e-02  -2.3 7.07e-01 1.00e+00h  1
 182 -2.5663000e-01 5.78e-05 9.51e+00  -6.0 1.11e-01  -2.8 6.05e-01 1.00e+00h  1
 183 -2.5700449e-01 5.24e-04 2.35e+00  -6.0 2.53e-01  -3.2 8.62e-01 7.90e-01h  1
 184 -2.5730490e-01 6.64e-04 2.24e+00  -6.0 1.06e+00  -3.7 1.87e-01 2.87e-01f  1
 185 -2.5713116e-01 2.32e-04 4.34e+00  -6.0 8.42e-01  -4.2 1.26e-01 1.00e+00H  1
 186 -2.5739929e-01 9.00e-04 3.73e+00  -6.0 1.21e+00  -4.7 4.04e-01 1.75e-01h  1
 187 -2.5742779e-01 1.52e-03 8.06e+00  -6.0 1.99e+00  -5.1 5.61e-01 9.76e-02h  1
 188 -2.5749958e-01 6.39e-03 1.36e+01  -6.0 6.64e+00  -5.6 6.17e-01 1.61e-01f  1
 189 -2.5759660e-01 2.39e-02 2.20e+01  -6.0 1.09e+01  -6.1 5.78e-01 1.67e-01f  1
iter    objective    inf_pr   inf_du lg(mu)  ||d||  lg(rg) alpha_du alpha_pr  ls
 190 -2.5770239e-01 2.89e-02 2.42e+01  -6.0 1.72e+02  -6.6 3.69e-02 1.66e-02f  1
 191 -2.5775249e-01 3.33e-02 6.33e+01  -6.0 1.79e+02  -7.0 8.07e-02 2.60e-02h  1
 192 -2.5789923e-01 6.40e-01 3.49e+01  -6.0 3.02e+02  -7.5 4.78e-02 3.56e-02h  1
 193 -2.5786491e-01 6.35e-01 2.94e+02  -6.0 2.16e+01  -6.2 6.23e-01 2.59e-01h  1
 194 -2.5795303e-01 4.96e-01 7.27e+02  -6.0 1.21e+01  -6.7 6.31e-01 2.61e-01h  1
 195 -2.5804870e-01 4.42e-01 2.09e+03  -6.0 3.18e+01  -7.1 1.00e+00 1.93e-01h  1
 196 -2.5812610e-01 4.05e-01 2.14e+03  -6.0 2.65e+01  -7.6 6.09e-01 1.82e-01h  1
 197 -2.5823833e-01 3.32e-01 1.54e+03  -6.0 6.74e+01  -8.1 1.00e+00 6.03e-01h  1
 198 -2.5849284e-01 2.19e-01 2.36e+03  -6.0 1.74e+02  -8.6 3.81e-01 7.54e-01h  1
 199 -2.5907104e-01 1.67e+00 8.10e+06  -6.0 3.52e+02  -9.1 6.58e-04 6.42e-01h  1
iter    objective    inf_pr   inf_du lg(mu)  ||d||  lg(rg) alpha_du alpha_pr  ls
 200 -2.5927391e-01 1.30e+00 4.66e+06  -6.0 4.28e+02  -9.5 5.79e-01 4.25e-01h  1
 201 -2.5896840e-01 4.30e-01 1.10e+03  -6.0 1.34e+02  -9.1 5.47e-01 1.00e+00h  1
 202 -2.5907867e-01 4.25e-01 6.64e+02  -6.0 3.71e+02  -9.6 5.56e-01 3.88e-01h  1
 203 -2.5914328e-01 3.22e-01 2.58e+00  -6.0 1.33e+02  -9.2 9.81e-01 1.00e+00h  1
 204 -2.5919596e-01 9.62e-01 5.79e-01  -6.0 2.32e+02  -9.6 1.00e+00 1.00e+00h  1
 205 -2.5921575e-01 1.39e+00 3.73e+01  -6.0 7.83e+02 -10.1 7.27e-01 2.47e-01h  2
 206 -2.5924938e-01 3.49e+00 4.91e-01  -6.0 4.36e+02  -9.7 1.00e+00 1.00e+00h  1
 207 -2.5926408e-01 3.02e+00 9.22e+01  -6.0 1.40e+03 -10.2 1.00e+00 1.90e-01h  1
 208 -2.5926850e-01 1.97e+01 2.24e+00  -6.0 1.25e+03 -10.6 1.00e+00 1.00e+00h  1
 209 -2.5926678e-01 1.34e+01 7.03e+00  -6.0 7.29e+02 -10.2 8.36e-01 3.33e-01h  1
iter    objective    inf_pr   inf_du lg(mu)  ||d||  lg(rg) alpha_du alpha_pr  ls
 210 -2.5925752e-01 1.09e+01 1.27e+01  -6.0 1.19e+03 -10.7 3.26e-01 5.86e-01h  1
 211 -2.5925672e-01 9.10e+00 1.18e+01  -6.0 3.55e+03 -11.2 3.22e-02 1.63e-01H  1
 212 -2.5925441e-01 2.12e+01 2.33e+01  -6.0 1.27e+04    -  2.11e-01 8.64e-02h  1
 213 -2.5924903e-01 1.45e+01 9.86e+00  -6.0 6.93e+02    -  4.73e-01 3.50e-01h  1
 214 -2.5924719e-01 1.83e+01 7.44e+00  -6.0 1.23e+03    -  6.07e-01 1.00e+00h  1
 215 -2.5923952e-01 1.65e+01 2.12e+00  -6.0 1.42e+03    -  5.86e-01 6.41e-01h  1
 216 -2.5923916e-01 1.46e+01 1.87e+00  -6.0 9.36e+02    -  8.74e-02 1.05e-01H  1
 217 -2.5924027e-01 1.24e+01 1.86e+01  -6.0 2.47e+03    -  5.30e-01 1.48e-01H  1
 218 -2.5923840e-01 4.02e-01 2.28e-02  -6.0 1.90e+02    -  1.00e+00 1.00e+00h  1
 219 -2.5923674e-01 3.41e-01 8.87e-03  -6.0 1.23e+02  -9.8 1.00e+00 1.00e+00h  1
iter    objective    inf_pr   inf_du lg(mu)  ||d||  lg(rg) alpha_du alpha_pr  ls
 220 -2.5923505e-01 1.75e+00 7.64e-02  -6.0 3.85e+02 -10.3 1.00e+00 1.00e+00h  1
 221 -2.5923444e-01 1.86e+00 1.97e+01  -6.0 1.39e+03    -  1.00e+00 1.19e-01h  2
 222 -2.5923399e-01 1.74e+00 1.71e+01  -6.0 7.83e+02    -  2.16e-01 1.06e-01h  2
 223 -2.5923420e-01 2.35e-03 2.44e-04  -6.0 1.60e+01    -  1.00e+00 1.00e+00h  1
 224 -2.5923409e-01 9.50e-03 6.05e-04  -6.0 2.87e+01    -  1.00e+00 1.00e+00h  1
 225 -2.5923412e-01 6.22e-04 2.36e-05  -6.0 7.33e+00    -  1.00e+00 1.00e+00h  1
 226 -2.5923412e-01 2.54e-08 1.10e-09  -6.0 4.63e-02    -  1.00e+00 1.00e+00h  1
 227 -2.5974838e-01 1.56e+00 1.47e+01  -7.5 3.27e+03    -  2.65e-01 2.13e-01f  1
 228 -2.5983259e-01 1.46e+00 1.07e+02  -7.5 4.05e+02  -9.9 5.16e-01 7.03e-02h  1
 229 -2.6037756e-01 6.33e+00 4.58e+01  -7.5 3.64e+03    -  3.71e-03 3.67e-01h  1
iter    objective    inf_pr   inf_du lg(mu)  ||d||  lg(rg) alpha_du alpha_pr  ls
 230 -2.6049651e-01 5.52e+00 4.74e+01  -7.5 2.54e+03    -  1.97e-01 1.37e-01h  1
 231 -2.6080074e-01 8.09e+00 4.12e+01  -7.5 1.96e+03    -  4.86e-01 4.09e-01h  1
 232 -2.6084936e-01 7.35e+00 6.92e+01  -7.5 1.61e+02  -9.5 4.58e-01 1.28e-01h  1
 233 -2.6091907e-01 5.26e+00 4.39e+01  -7.5 2.84e+02  -9.9 1.90e-01 2.87e-01h  1
 234 -2.6094919e-01 4.52e+00 4.91e+01  -7.5 1.70e+03    -  3.89e-01 1.42e-01h  1
 235 -2.6100477e-01 2.47e+00 4.22e+01  -7.5 4.14e+02 -10.4 1.00e+00 4.58e-01h  1
 236 -2.6109954e-01 5.13e+00 3.65e+00  -7.5 1.12e+03    -  3.35e-01 9.14e-01h  1
 237 -2.6110995e-01 2.46e+00 1.63e+00  -7.5 1.76e+02 -10.9 1.00e+00 5.60e-01h  1
 238 -2.6112829e-01 1.01e+00 2.11e-02  -7.5 2.24e+02 -11.4 1.00e+00 1.00e+00h  1
 239 -2.6113394e-01 1.12e+00 2.08e-01  -7.5 5.59e+02 -11.9 8.94e-01 5.36e-01h  1
iter    objective    inf_pr   inf_du lg(mu)  ||d||  lg(rg) alpha_du alpha_pr  ls
 240 -2.6113252e-01 3.41e+01 7.83e-01  -7.5 1.70e+03 -11.4 6.74e-02 1.00e+00h  1
 241 -2.6113565e-01 7.58e+00 6.88e-01  -7.5 1.76e+02 -11.9 1.39e-01 7.87e-01h  1
 242 -2.6113531e-01 2.50e+00 3.29e-02  -7.5 4.20e+02 -11.5 1.00e+00 9.40e-01h  1
 243 -2.6113592e-01 2.96e+01 5.40e-01  -7.5 1.52e+03 -12.0 1.59e-01 1.00e+00h  1
 244 -2.6113825e-01 6.92e+01 2.59e+00  -7.5 8.37e+03 -12.4 3.02e-02 4.40e-01H  1
 245 -2.6113822e-01 6.89e+01 3.73e+02  -7.5 6.63e+03    -  3.94e-01 4.15e-03h  1
 246 -2.6113831e-01 6.54e-01 2.42e+04  -7.5 2.63e+02    -  1.54e-02 1.00e+00h  1
 247 -2.6113815e-01 3.49e-01 4.13e+00  -7.5 1.54e+02    -  4.39e-03 1.00e+00h  1
 248 -2.6113813e-01 6.15e-02 2.61e-04  -7.5 7.30e+01    -  1.00e+00 1.00e+00h  1
 249 -2.6114127e-01 6.20e+01 1.73e+00  -7.5 1.97e+04    -  3.50e-02 4.90e-01H  1
iter    objective    inf_pr   inf_du lg(mu)  ||d||  lg(rg) alpha_du alpha_pr  ls
 250 -2.6113860e-01 2.32e+01 2.12e-01  -7.5 4.02e+03    -  1.00e+00 1.00e+00H  1
 251 -2.6114211e-01 5.86e+01 1.03e+00  -7.5 2.39e+03    -  4.90e-02 6.60e-01H  1
 252 -2.6114399e-01 5.17e+01 1.08e+01  -7.5 1.71e+03    -  2.35e-01 1.00e+00h  1
 253 -2.6114375e-01 2.07e+01 2.06e+00  -7.5 6.12e+02    -  1.13e-01 6.45e-01h  1
 254 -2.6114285e-01 9.09e+00 1.37e-01  -7.5 7.31e+02    -  8.12e-01 1.00e+00h  1
 255 -2.6114271e-01 1.43e-01 4.74e-02  -7.5 1.00e+02    -  7.41e-01 1.00e+00h  1
 256 -2.6114276e-01 4.28e-02 1.45e-04  -7.5 4.97e+01    -  1.00e+00 1.00e+00h  1
 257 -2.6114277e-01 1.58e-04 6.53e-07  -7.5 2.98e+00    -  1.00e+00 1.00e+00h  1
 258 -2.6114277e-01 3.05e-10 5.55e-13  -7.5 1.04e-03    -  1.00e+00 1.00e+00h  1
 259 -2.6114491e-01 1.53e+00 6.29e+00  -9.0 1.28e+03    -  5.79e-01 2.32e-01h  1
iter    objective    inf_pr   inf_du lg(mu)  ||d||  lg(rg) alpha_du alpha_pr  ls
 260 -2.6114856e-01 5.20e+01 3.50e-01  -9.0 2.38e+03    -  4.79e-01 7.26e-01h  1
 261 -2.6114846e-01 1.93e+01 2.32e+00  -9.0 3.25e+02    -  6.01e-02 6.30e-01h  1
 262 -2.6114861e-01 4.34e-01 4.38e-01  -9.0 1.32e+02 -11.1 8.82e-01 1.00e+00h  1
 263 -2.6114887e-01 2.53e+01 4.38e-01  -9.0 2.31e+05    -  1.33e-03 6.41e-03h  2
 264 -2.6115021e-01 5.19e+01 3.67e-01  -9.0 4.02e+03    -  1.70e-01 4.09e-01h  1
Error in an AMPL evaluation. Run with "halt_on_ampl_error yes" to see details.
Warning: Cutting back alpha due to evaluation error
 265 -2.6115017e-01 5.21e+01 5.66e+00  -9.0 2.26e+04 -11.6 2.57e-03 6.92e-03h  4
 266 -2.6115014e-01 3.61e+01 3.74e+00  -9.0 1.27e+03 -12.1 2.09e-01 1.00e+00h  1
 267 -2.6115154e-01 6.21e+00 2.79e+00  -9.0 4.90e+02 -11.6 4.58e-01 1.00e+00h  1
 268 -2.6115217e-01 1.09e+01 2.27e+00  -9.0 2.62e+03 -12.1 5.02e-01 1.92e-01h  1
 269 -2.6115218e-01 6.57e+00 4.25e-03  -9.0 7.34e+02 -12.6 1.00e+00 1.00e+00h  1
iter    objective    inf_pr   inf_du lg(mu)  ||d||  lg(rg) alpha_du alpha_pr  ls
 270 -2.6115314e-01 1.01e+02 2.87e-02  -9.0 4.84e+03 -13.1 2.21e-01 6.13e-01h  1
 271 -2.6115330e-01 1.11e+02 9.98e+00  -9.0 3.17e+03 -12.6 8.28e-02 9.07e-01h  1
 272 -2.6115404e-01 4.96e+01 5.87e+00  -9.0 1.96e+03 -12.2 5.25e-01 1.00e+00h  1
 273 -2.6115441e-01 1.01e+00 9.16e+00  -9.0 2.59e+02 -11.8 7.03e-02 1.00e+00h  1
 274 -2.6115485e-01 5.28e+00 5.01e+00  -9.0 5.99e+02 -12.3 2.70e-01 1.00e+00h  1
 275 -2.6115639e-01 6.76e+01 3.07e+00  -9.0 3.35e+03 -12.7 4.64e-01 6.26e-01h  1
 276 -2.6115644e-01 7.19e+01 2.04e+00  -9.0 2.20e+03 -12.3 6.34e-01 9.50e-01h  1
 277 -2.6115816e-01 7.48e+01 2.03e+01  -9.0 1.90e+04 -12.8 1.38e-04 1.10e-01h  1
 278 -2.6115812e-01 7.35e+01 2.00e+01  -9.0 4.69e+03 -12.4 2.02e-01 1.93e-02h  1
 279 -2.6115845e-01 6.80e+01 1.85e+01  -9.0 6.98e+03 -12.8 1.60e-02 7.64e-02h  3
iter    objective    inf_pr   inf_du lg(mu)  ||d||  lg(rg) alpha_du alpha_pr  ls
 280 -2.6115910e-01 6.32e+01 1.56e+01  -9.0 3.92e+03 -11.5 2.91e-02 1.54e-01h  1
 281 -2.6116179e-01 7.21e+01 8.85e+00  -9.0 4.29e+03    -  1.40e-02 4.38e-01h  1
 282 -2.6116196e-01 7.85e+01 5.32e+00  -9.0 4.20e+03    -  3.73e-01 3.98e-01h  1
 283 -2.6116456e-01 5.11e+01 3.86e+00  -9.0 1.83e+03    -  1.86e-02 9.17e-01h  1
 284 -2.6116667e-01 4.03e+01 3.90e+01  -9.0 1.65e+03 -12.0 1.80e-02 6.90e-01h  1
 285 -2.6116749e-01 1.85e+01 7.65e+02  -9.0 9.28e+02 -10.7 5.39e-03 1.00e+00h  1
 286 -2.6116753e-01 1.33e-01 1.94e-01  -9.0 9.05e+01 -11.1 7.76e-01 1.00e+00h  1
 287 -2.6116808e-01 2.16e+00 2.30e-02  -9.0 3.32e+02 -11.6 8.52e-01 1.00e+00h  1
 288 -2.6116968e-01 1.57e+01 1.06e-02  -9.0 9.57e+02 -12.1 1.00e+00 1.00e+00h  1
 289 -2.6117211e-01 6.16e+01 2.19e-02  -9.0 3.60e+03 -12.6 5.29e-01 5.19e-01h  1
iter    objective    inf_pr   inf_du lg(mu)  ||d||  lg(rg) alpha_du alpha_pr  ls
 290 -2.6117235e-01 5.77e+01 1.10e+00  -9.0 6.24e+03    -  2.47e-01 6.29e-02h  2
 291 -2.6117284e-01 5.34e+01 3.01e+00  -9.0 6.16e+03    -  5.79e-01 8.62e-02h  1
 292 -2.6117367e-01 4.23e+01 1.89e+00  -9.0 1.77e+03    -  2.30e-01 3.11e-01h  1
 293 -2.6117469e-01 3.55e+01 3.46e+01  -9.0 1.77e+03    -  3.00e-02 4.90e-01h  1
 294 -2.6117489e-01 3.19e+01 3.03e+01  -9.0 1.66e+03    -  1.66e-02 1.25e-01h  1
 295 -2.6117529e-01 2.71e+01 2.14e+01  -9.0 1.66e+03    -  1.60e-01 2.93e-01h  1
 296 -2.6117576e-01 2.43e+01 1.42e+01  -9.0 1.67e+03    -  6.48e-01 3.37e-01h  1
 297 -2.6117603e-01 2.18e+01 1.11e+01  -9.0 1.71e+03    -  4.93e-01 2.20e-01h  1
 298 -2.6117650e-01 2.25e+01 5.59e+02  -9.0 1.64e+03    -  1.42e-02 4.21e-01h  1
 299 -2.6117718e-01 3.49e+01 1.31e+02  -9.0 1.54e+03    -  6.02e-02 7.64e-01h  1
iter    objective    inf_pr   inf_du lg(mu)  ||d||  lg(rg) alpha_du alpha_pr  ls
 300 -2.6117756e-01 2.50e+01 4.47e+01  -9.0 1.03e+03    -  1.27e-01 9.63e-01h  1
 301 -2.6117746e-01 2.30e+01 3.49e+01  -9.0 1.77e+03    -  2.49e-01 2.13e-01h  2
 302 -2.6117760e-01 2.15e+01 2.74e+01  -9.0 1.76e+03    -  2.91e-01 2.13e-01h  1
 303 -2.6117761e-01 9.58e-04 4.76e-01  -9.0 2.78e+01    -  7.04e-01 1.00e+00h  1
 304 -2.6117761e-01 1.96e-04 7.33e-06  -9.0 2.85e+00    -  1.00e+00 1.00e+00h  1
 305 -2.6117761e-01 2.65e-06 1.02e-09  -9.0 3.32e-01    -  1.00e+00 1.00e+00h  1
 306 -2.6117761e-01 2.83e-10 1.55e-14  -9.0 1.15e-05    -  1.00e+00 1.00e+00h  1

Number of Iterations....: 306

                                   (scaled)                 (unscaled)
Objective...............:  -2.6117761132205330e-01   -2.6117761132205330e-01
Dual infeasibility......:   1.5459855617905305e-14    1.5459855617905305e-14
Constraint violation....:   2.8349965300669688e-10    2.8349965300669688e-10
Complementarity.........:   9.0909091189139700e-10    9.0909091189139700e-10
Overall NLP error.......:   9.0909091189139700e-10    9.0909091189139700e-10


Number of objective function evaluations             = 523
Number of objective gradient evaluations             = 307
Number of equality constraint evaluations            = 524
Number of inequality constraint evaluations          = 524
Number of equality constraint Jacobian evaluations   = 308
Number of inequality constraint Jacobian evaluations = 308
Number of Lagrangian Hessian evaluations             = 306
Total CPU secs in IPOPT (w/o function evaluations)   =    742.272
Total CPU secs in NLP function evaluations           =     10.971

EXIT: Optimal Solution Found.
